# Objective value = 1.0161400000000020e+04
I_0_0 1251
I_0_1 1762
I_0_2 1559
I_0_3 1.4080000000000005e+03
I_0_4 1.5500000000000009e+03
I_0_5 1.3809999999999957e+03
I_0_6 1.8920000000000011e+03
I_1_0 51
I_1_1 0
I_1_2 51
I_1_3 -9.2009733165809848e-15
I_1_4 51
I_1_5 5.1000000000000014e+01
I_1_6 -5.6621374255882984e-15
I_2_0 78
I_2_1 0
I_2_2 78
I_2_3 7.7999999999999787e+01
I_2_4 0
I_2_5 78
I_2_6 0
I_3_0 12
I_3_1 0
I_3_2 12
I_3_3 0
I_3_4 12
I_3_5 12
I_3_6 -8.8817841970012523e-16
I_4_0 10
I_4_1 0
I_4_2 10
I_4_3 9.9999999999999964e+00
I_4_4 -2.9976021664879227e-15
I_4_5 10
I_4_6 -1.7763568394002505e-15
I_5_0 150
I_5_1 75
I_5_2 150
I_5_3 7.5000000000000483e+01
I_5_4 1.4999999999999997e+02
I_5_5 7.4999999999999972e+01
I_5_6 1.7763568394002505e-14
I_6_0 69
I_6_1 0
I_6_2 69
I_6_3 69
I_6_4 -7.9936057773011271e-15
I_6_5 69
I_6_6 0
I_7_0 19
I_7_1 0
I_7_2 19
I_7_3 -2.76445533131664e-13
I_7_4 1.8999999999999758e+01
I_7_5 1.8999999999999730e+01
I_7_6 0
I_8_0 110
I_8_1 55
I_8_2 -7.1054273576010019e-15
I_8_3 1.1000000000000001e+02
I_8_4 1.1000000000000001e+02
I_8_5 55
I_8_6 0
I_9_0 198
I_9_1 99
I_9_2 0
I_9_3 1.9800000000000006e+02
I_9_4 9.9000000000000071e+01
I_9_5 1.9800000000000011e+02
I_9_6 9.9000000000000071e+01
I_10_0 43
I_10_1 0
I_10_2 43
I_10_3 43
I_10_4 0
I_10_5 4.3000000000005457e+01
I_10_6 -3.5527136788005009e-15
q_1_0_0 0
q_1_0_1 102
q_1_0_2 -9.2009733165809848e-15
q_1_0_3 102
q_1_0_4 5.1000000000000014e+01
q_1_0_5 -1.9872992140790302e-14
q_1_1_0 0
q_1_1_1 0
q_1_1_2 0
q_1_1_3 0
q_1_1_4 0
q_1_1_5 0
q_2_0_0 0
q_2_0_1 156
q_2_0_2 7.7999999999999787e+01
q_2_0_3 0
q_2_0_4 156
q_2_0_5 5.3290705182007514e-15
q_2_1_0 0
q_2_1_1 0
q_2_1_2 0
q_2_1_3 0
q_2_1_4 0
q_2_1_5 -3.5527136788005009e-15
q_3_0_0 0
q_3_0_1 0
q_3_0_2 0
q_3_0_3 24
q_3_0_4 1.1999999999999970e+01
q_3_0_5 0
q_3_1_0 0
q_3_1_1 24
q_3_1_2 0
q_3_1_3 0
q_3_1_4 3.5527136788005009e-15
q_3_1_5 0
q_4_0_0 0
q_4_0_1 20
q_4_0_2 9.9999999999999964e+00
q_4_0_3 -4.2188474935755949e-15
q_4_0_4 2.0000000000000004e+01
q_4_0_5 -1.7763568394002505e-15
q_4_1_0 0
q_4_1_1 0
q_4_1_2 0
q_4_1_3 0
q_4_1_4 0
q_4_1_5 0
q_5_0_0 0
q_5_0_1 0
q_5_0_2 0
q_5_0_3 1.4999999999999949e+02
q_5_0_4 0
q_5_0_5 1.7763568394002505e-14
q_5_1_0 0
q_5_1_1 150
q_5_1_2 0
q_5_1_3 0
q_5_1_4 0
q_5_1_5 0
q_6_0_0 0
q_6_0_1 0
q_6_0_2 69
q_6_0_3 -1.7763568394002505e-15
q_6_0_4 0
q_6_0_5 0
q_6_1_0 0
q_6_1_1 138
q_6_1_2 0
q_6_1_3 0
q_6_1_4 138
q_6_1_5 0
q_7_0_0 0
q_7_0_1 0
q_7_0_2 -2.76445533131664e-13
q_7_0_3 3.8000000000000036e+01
q_7_0_4 1.8999999999999964e+01
q_7_0_5 0
q_7_1_0 0
q_7_1_1 38
q_7_1_2 0
q_7_1_3 0
q_7_1_4 0
q_7_1_5 0
q_8_0_0 0
q_8_0_1 0
q_8_0_2 165
q_8_0_3 55
q_8_0_4 0
q_8_0_5 7.1054273576010019e-15
q_8_1_0 0
q_8_1_1 -7.1054273576010019e-15
q_8_1_2 0
q_8_1_3 0
q_8_1_4 0
q_8_1_5 1.4210854715202004e-14
q_9_0_0 0
q_9_0_1 0
q_9_0_2 -5.3290705182007514e-15
q_9_0_3 0
q_9_0_4 0
q_9_0_5 -1.4210854715202004e-14
q_9_1_0 0
q_9_1_1 -1.4210854715202004e-14
q_9_1_2 297
q_9_1_3 0
q_9_1_4 198
q_9_1_5 0
q_10_0_0 0
q_10_0_1 86
q_10_0_2 43
q_10_0_3 0
q_10_0_4 86
q_10_0_5 -3.5527136788005009e-15
q_10_1_0 0
q_10_1_1 0
q_10_1_2 0
q_10_1_3 0
q_10_1_4 5.4573415248170088e-12
q_10_1_5 -5.4480864264405682e-12
y_0_0_0 0
y_0_0_1 1
y_0_0_2 1
y_0_0_3 1
y_0_0_4 1
y_0_0_5 0
y_0_1_0 0
y_0_1_1 1
y_0_1_2 1
y_0_1_3 0
y_0_1_4 1
y_0_1_5 2.7755575615628914e-17
y_1_0_0 0
y_1_0_1 1
y_1_0_2 -1.8041124150158794e-16
y_1_0_3 1
y_1_0_4 1.0000000000000002e+00
y_1_0_5 -1.1102230246251565e-16
y_1_1_0 0
y_1_1_1 0
y_1_1_2 0
y_1_1_3 0
y_1_1_4 0
y_1_1_5 0
y_2_0_0 0
y_2_0_1 1
y_2_0_2 9.9999999999999989e-01
y_2_0_3 0
y_2_0_4 1
y_2_0_5 3.4694469519536142e-17
y_2_1_0 0
y_2_1_1 0
y_2_1_2 0
y_2_1_3 0
y_2_1_4 0
y_2_1_5 -6.9388939039072284e-18
y_3_0_0 0
y_3_0_1 0
y_3_0_2 0
y_3_0_3 1
y_3_0_4 1
y_3_0_5 -5.5511151231257827e-17
y_3_1_0 0
y_3_1_1 1
y_3_1_2 0
y_3_1_3 0
y_3_1_4 5.5511151231257827e-17
y_3_1_5 0
y_4_0_0 0
y_4_0_1 1
y_4_0_2 1
y_4_0_3 -1.1102230246251565e-16
y_4_0_4 1
y_4_0_5 -5.5511151231257827e-17
y_4_1_0 0
y_4_1_1 0
y_4_1_2 0
y_4_1_3 0
y_4_1_4 5.5511151231257827e-17
y_4_1_5 0
y_5_0_0 0
y_5_0_1 0
y_5_0_2 0
y_5_0_3 1
y_5_0_4 0
y_5_0_5 2.4980018054066022e-16
y_5_1_0 0
y_5_1_1 1
y_5_1_2 0
y_5_1_3 0
y_5_1_4 1.1102230246251565e-16
y_5_1_5 0
y_6_0_0 0
y_6_0_1 0
y_6_0_2 1
y_6_0_3 0
y_6_0_4 0
y_6_0_5 0
y_6_1_0 0
y_6_1_1 1
y_6_1_2 0
y_6_1_3 0
y_6_1_4 1
y_6_1_5 0
y_7_0_0 0
y_7_0_1 0
y_7_0_2 -1.4460654895742664e-14
y_7_0_3 1.0000000000000426e+00
y_7_0_4 1.0000000000000002e+00
y_7_0_5 0
y_7_1_0 0
y_7_1_1 1
y_7_1_2 0
y_7_1_3 0
y_7_1_4 -1.3877787807814457e-16
y_7_1_5 -1.4238610290817633e-14
y_8_0_0 0
y_8_0_1 0
y_8_0_2 1
y_8_0_3 1
y_8_0_4 0
y_8_0_5 5.5511151231257827e-17
y_8_1_0 0
y_8_1_1 0
y_8_1_2 0
y_8_1_3 0
y_8_1_4 0
y_8_1_5 5.5511151231257827e-17
y_9_0_0 0
y_9_0_1 0
y_9_0_2 0
y_9_0_3 0
y_9_0_4 0
y_9_0_5 -5.5511151231257827e-17
y_9_1_0 0
y_9_1_1 -1.6653345369377348e-16
y_9_1_2 1
y_9_1_3 0
y_9_1_4 1
y_9_1_5 0
y_10_0_0 0
y_10_0_1 1
y_10_0_2 1
y_10_0_3 0
y_10_0_4 1
y_10_0_5 -2.7755575615628914e-17
y_10_1_0 0
y_10_1_1 0
y_10_1_2 0
y_10_1_3 0
y_10_1_4 6.3457459590895452e-14
y_10_1_5 0
x_0_1_0_0 0
x_0_1_0_1 1
x_0_1_0_2 0
x_0_1_0_3 -1.4349632593280148e-14
x_0_1_0_4 0
x_0_1_0_5 0
x_0_1_1_0 0
x_0_1_1_1 0
x_0_1_1_2 0
x_0_1_1_3 0
x_0_1_1_4 0
x_0_1_1_5 0
x_0_2_0_0 0
x_0_2_0_1 0
x_0_2_0_2 0
x_0_2_0_3 0
x_0_2_0_4 0
x_0_2_0_5 0
x_0_2_1_0 0
x_0_2_1_1 0
x_0_2_1_2 0
x_0_2_1_3 0
x_0_2_1_4 0
x_0_2_1_5 0
x_0_3_0_0 0
x_0_3_0_1 0
x_0_3_0_2 0
x_0_3_0_3 0
x_0_3_0_4 0
x_0_3_0_5 0
x_0_3_1_0 0
x_0_3_1_1 0
x_0_3_1_2 0
x_0_3_1_3 0
x_0_3_1_4 0
x_0_3_1_5 0
x_0_4_0_0 0
x_0_4_0_1 1
x_0_4_0_2 0
x_0_4_0_3 0
x_0_4_0_4 1
x_0_4_0_5 0
x_0_4_1_0 0
x_0_4_1_1 0
x_0_4_1_2 0
x_0_4_1_3 0
x_0_4_1_4 0
x_0_4_1_5 0
x_0_5_0_0 0
x_0_5_0_1 0
x_0_5_0_2 0
x_0_5_0_3 -9.71445146547012e-17
x_0_5_0_4 0
x_0_5_0_5 0
x_0_5_1_0 0
x_0_5_1_1 0
x_0_5_1_2 0
x_0_5_1_3 0
x_0_5_1_4 0
x_0_5_1_5 0
x_0_6_0_0 0
x_0_6_0_1 0
x_0_6_0_2 1.0000000000000002e+00
x_0_6_0_3 0
x_0_6_0_4 0
x_0_6_0_5 0
x_0_6_1_0 0
x_0_6_1_1 9.9999999999999978e-01
x_0_6_1_2 0
x_0_6_1_3 0
x_0_6_1_4 9.9999999999993638e-01
x_0_6_1_5 0
x_0_7_0_0 0
x_0_7_0_1 0
x_0_7_0_2 0
x_0_7_0_3 1.0000000000000286e+00
x_0_7_0_4 1.0000000000000002e+00
x_0_7_0_5 0
x_0_7_1_0 0
x_0_7_1_1 1
x_0_7_1_2 0
x_0_7_1_3 0
x_0_7_1_4 0
x_0_7_1_5 5.5511151231257827e-17
x_0_8_0_0 0
x_0_8_0_1 0
x_0_8_0_2 9.9999999999998646e-01
x_0_8_0_3 1.0000000000000004e+00
x_0_8_0_4 0
x_0_8_0_5 0
x_0_8_1_0 0
x_0_8_1_1 0
x_0_8_1_2 0
x_0_8_1_3 0
x_0_8_1_4 0
x_0_8_1_5 0
x_0_9_0_0 0
x_0_9_0_1 0
x_0_9_0_2 1.3142265054000291e-14
x_0_9_0_3 -2.8074764735208646e-14
x_0_9_0_4 -1.1102230246251565e-16
x_0_9_0_5 -1.1102230246251565e-16
x_0_9_1_0 0
x_0_9_1_1 5.5511151231257827e-17
x_0_9_1_2 2
x_0_9_1_3 0
x_0_9_1_4 1.0000000000000637e+00
x_0_9_1_5 0
x_0_10_0_0 0
x_0_10_0_1 0
x_0_10_0_2 0
x_0_10_0_3 0
x_0_10_0_4 0
x_0_10_0_5 0
x_0_10_1_0 0
x_0_10_1_1 0
x_0_10_1_2 0
x_0_10_1_3 0
x_0_10_1_4 0
x_0_10_1_5 0
x_1_2_0_0 0
x_1_2_0_1 0
x_1_2_0_2 0
x_1_2_0_3 0
x_1_2_0_4 0
x_1_2_0_5 0
x_1_2_1_0 0
x_1_2_1_1 0
x_1_2_1_2 0
x_1_2_1_3 0
x_1_2_1_4 0
x_1_2_1_5 0
x_1_3_0_0 0
x_1_3_0_1 0
x_1_3_0_2 0
x_1_3_0_3 1
x_1_3_0_4 1.0000000000000002e+00
x_1_3_0_5 -2.2204460492503131e-16
x_1_3_1_0 0
x_1_3_1_1 0
x_1_3_1_2 0
x_1_3_1_3 0
x_1_3_1_4 0
x_1_3_1_5 0
x_1_4_0_0 0
x_1_4_0_1 0
x_1_4_0_2 0
x_1_4_0_3 0
x_1_4_0_4 0
x_1_4_0_5 0
x_1_4_1_0 0
x_1_4_1_1 0
x_1_4_1_2 0
x_1_4_1_3 0
x_1_4_1_4 0
x_1_4_1_5 0
x_1_5_0_0 0
x_1_5_0_1 0
x_1_5_0_2 0
x_1_5_0_3 1.0000000000000002e+00
x_1_5_0_4 0
x_1_5_0_5 0
x_1_5_1_0 0
x_1_5_1_1 0
x_1_5_1_2 0
x_1_5_1_3 0
x_1_5_1_4 0
x_1_5_1_5 0
x_1_6_0_0 0
x_1_6_0_1 0
x_1_6_0_2 0
x_1_6_0_3 0
x_1_6_0_4 0
x_1_6_0_5 0
x_1_6_1_0 0
x_1_6_1_1 0
x_1_6_1_2 0
x_1_6_1_3 0
x_1_6_1_4 0
x_1_6_1_5 0
x_1_7_0_0 0
x_1_7_0_1 0
x_1_7_0_2 -1.4502288259166107e-14
x_1_7_0_3 2.8851920852446256e-14
x_1_7_0_4 1.0000000000000002e+00
x_1_7_0_5 0
x_1_7_1_0 0
x_1_7_1_1 0
x_1_7_1_2 0
x_1_7_1_3 0
x_1_7_1_4 0
x_1_7_1_5 0
x_1_8_0_0 0
x_1_8_0_1 0
x_1_8_0_2 -1.4502288259166107e-14
x_1_8_0_3 0
x_1_8_0_4 0
x_1_8_0_5 0
x_1_8_1_0 0
x_1_8_1_1 0
x_1_8_1_2 0
x_1_8_1_3 0
x_1_8_1_4 0
x_1_8_1_5 0
x_1_9_0_0 0
x_1_9_0_1 0
x_1_9_0_2 0
x_1_9_0_3 0
x_1_9_0_4 0
x_1_9_0_5 0
x_1_9_1_0 0
x_1_9_1_1 0
x_1_9_1_2 0
x_1_9_1_3 0
x_1_9_1_4 0
x_1_9_1_5 0
x_1_10_0_0 0
x_1_10_0_1 1
x_1_10_0_2 0
x_1_10_0_3 0
x_1_10_0_4 0
x_1_10_0_5 0
x_1_10_1_0 0
x_1_10_1_1 0
x_1_10_1_2 0
x_1_10_1_3 0
x_1_10_1_4 0
x_1_10_1_5 0
x_2_3_0_0 0
x_2_3_0_1 0
x_2_3_0_2 0
x_2_3_0_3 0
x_2_3_0_4 0
x_2_3_0_5 0
x_2_3_1_0 0
x_2_3_1_1 0
x_2_3_1_2 0
x_2_3_1_3 0
x_2_3_1_4 0
x_2_3_1_5 0
x_2_4_0_0 0
x_2_4_0_1 1
x_2_4_0_2 1
x_2_4_0_3 0
x_2_4_0_4 1
x_2_4_0_5 6.9388939039072284e-17
x_2_4_1_0 0
x_2_4_1_1 0
x_2_4_1_2 0
x_2_4_1_3 0
x_2_4_1_4 0
x_2_4_1_5 -1.3877787807814457e-17
x_2_5_0_0 0
x_2_5_0_1 0
x_2_5_0_2 0
x_2_5_0_3 0
x_2_5_0_4 0
x_2_5_0_5 0
x_2_5_1_0 0
x_2_5_1_1 0
x_2_5_1_2 0
x_2_5_1_3 0
x_2_5_1_4 0
x_2_5_1_5 0
x_2_6_0_0 0
x_2_6_0_1 0
x_2_6_0_2 -1.1102230246251565e-16
x_2_6_0_3 0
x_2_6_0_4 0
x_2_6_0_5 0
x_2_6_1_0 0
x_2_6_1_1 0
x_2_6_1_2 0
x_2_6_1_3 0
x_2_6_1_4 0
x_2_6_1_5 0
x_2_7_0_0 0
x_2_7_0_1 0
x_2_7_0_2 0
x_2_7_0_3 0
x_2_7_0_4 0
x_2_7_0_5 0
x_2_7_1_0 0
x_2_7_1_1 0
x_2_7_1_2 0
x_2_7_1_3 0
x_2_7_1_4 0
x_2_7_1_5 0
x_2_8_0_0 0
x_2_8_0_1 0
x_2_8_0_2 0
x_2_8_0_3 0
x_2_8_0_4 0
x_2_8_0_5 0
x_2_8_1_0 0
x_2_8_1_1 0
x_2_8_1_2 0
x_2_8_1_3 0
x_2_8_1_4 0
x_2_8_1_5 0
x_2_9_0_0 0
x_2_9_0_1 0
x_2_9_0_2 0
x_2_9_0_3 0
x_2_9_0_4 0
x_2_9_0_5 0
x_2_9_1_0 0
x_2_9_1_1 0
x_2_9_1_2 0
x_2_9_1_3 0
x_2_9_1_4 0
x_2_9_1_5 0
x_2_10_0_0 0
x_2_10_0_1 1
x_2_10_0_2 1
x_2_10_0_3 0
x_2_10_0_4 1
x_2_10_0_5 0
x_2_10_1_0 0
x_2_10_1_1 0
x_2_10_1_2 0
x_2_10_1_3 0
x_2_10_1_4 0
x_2_10_1_5 0
x_3_4_0_0 0
x_3_4_0_1 0
x_3_4_0_2 0
x_3_4_0_3 0
x_3_4_0_4 0
x_3_4_0_5 -4.7184478546569153e-16
x_3_4_1_0 0
x_3_4_1_1 0
x_3_4_1_2 0
x_3_4_1_3 0
x_3_4_1_4 0
x_3_4_1_5 0
x_3_5_0_0 0
x_3_5_0_1 0
x_3_5_0_2 0
x_3_5_0_3 0
x_3_5_0_4 0
x_3_5_0_5 4.9960036108132044e-16
x_3_5_1_0 0
x_3_5_1_1 1
x_3_5_1_2 0
x_3_5_1_3 0
x_3_5_1_4 1.1102230246251565e-16
x_3_5_1_5 0
x_3_6_0_0 0
x_3_6_0_1 0
x_3_6_0_2 0
x_3_6_0_3 0
x_3_6_0_4 0
x_3_6_0_5 0
x_3_6_1_0 0
x_3_6_1_1 1
x_3_6_1_2 0
x_3_6_1_3 0
x_3_6_1_4 0
x_3_6_1_5 0
x_3_7_0_0 0
x_3_7_0_1 0
x_3_7_0_2 0
x_3_7_0_3 -1.4502288259166107e-14
x_3_7_0_4 -1.1102230246251565e-16
x_3_7_0_5 0
x_3_7_1_0 0
x_3_7_1_1 0
x_3_7_1_2 0
x_3_7_1_3 0
x_3_7_1_4 -1.6653345369377348e-16
x_3_7_1_5 -1.1102230246251565e-16
x_3_8_0_0 0
x_3_8_0_1 0
x_3_8_0_2 0
x_3_8_0_3 1
x_3_8_0_4 0
x_3_8_0_5 1.1102230246251565e-16
x_3_8_1_0 0
x_3_8_1_1 0
x_3_8_1_2 0
x_3_8_1_3 0
x_3_8_1_4 0
x_3_8_1_5 1.1102230246251565e-16
x_3_9_0_0 0
x_3_9_0_1 0
x_3_9_0_2 0
x_3_9_0_3 0
x_3_9_0_4 0
x_3_9_0_5 0
x_3_9_1_0 0
x_3_9_1_1 0
x_3_9_1_2 0
x_3_9_1_3 0
x_3_9_1_4 0
x_3_9_1_5 0
x_3_10_0_0 0
x_3_10_0_1 0
x_3_10_0_2 0
x_3_10_0_3 0
x_3_10_0_4 1
x_3_10_0_5 0
x_3_10_1_0 0
x_3_10_1_1 0
x_3_10_1_2 0
x_3_10_1_3 0
x_3_10_1_4 5.5511151231257827e-17
x_3_10_1_5 0
x_4_5_0_0 0
x_4_5_0_1 0
x_4_5_0_2 0
x_4_5_0_3 0
x_4_5_0_4 0
x_4_5_0_5 0
x_4_5_1_0 0
x_4_5_1_1 0
x_4_5_1_2 0
x_4_5_1_3 0
x_4_5_1_4 0
x_4_5_1_5 0
x_4_6_0_0 0
x_4_6_0_1 0
x_4_6_0_2 9.9999999999999978e-01
x_4_6_0_3 -1.1102230246251565e-16
x_4_6_0_4 0
x_4_6_0_5 0
x_4_6_1_0 0
x_4_6_1_1 0
x_4_6_1_2 0
x_4_6_1_3 0
x_4_6_1_4 1.1102230246251565e-16
x_4_6_1_5 0
x_4_7_0_0 0
x_4_7_0_1 0
x_4_7_0_2 0
x_4_7_0_3 0
x_4_7_0_4 0
x_4_7_0_5 0
x_4_7_1_0 0
x_4_7_1_1 0
x_4_7_1_2 0
x_4_7_1_3 0
x_4_7_1_4 0
x_4_7_1_5 0
x_4_8_0_0 0
x_4_8_0_1 0
x_4_8_0_2 0
x_4_8_0_3 -9.71445146547012e-17
x_4_8_0_4 0
x_4_8_0_5 -5.5511151231257827e-17
x_4_8_1_0 0
x_4_8_1_1 0
x_4_8_1_2 0
x_4_8_1_3 0
x_4_8_1_4 0
x_4_8_1_5 1.3877787807814457e-17
x_4_9_0_0 0
x_4_9_0_1 0
x_4_9_0_2 0
x_4_9_0_3 0
x_4_9_0_4 0
x_4_9_0_5 0
x_4_9_1_0 0
x_4_9_1_1 0
x_4_9_1_2 0
x_4_9_1_3 0
x_4_9_1_4 0
x_4_9_1_5 0
x_4_10_0_0 0
x_4_10_0_1 0
x_4_10_0_2 0
x_4_10_0_3 0
x_4_10_0_4 0
x_4_10_0_5 -5.5511151231257827e-17
x_4_10_1_0 0
x_4_10_1_1 0
x_4_10_1_2 0
x_4_10_1_3 0
x_4_10_1_4 0
x_4_10_1_5 0
x_5_6_0_0 0
x_5_6_0_1 0
x_5_6_0_2 0
x_5_6_0_3 0
x_5_6_0_4 0
x_5_6_0_5 0
x_5_6_1_0 0
x_5_6_1_1 0
x_5_6_1_2 0
x_5_6_1_3 0
x_5_6_1_4 0
x_5_6_1_5 0
x_5_7_0_0 0
x_5_7_0_1 0
x_5_7_0_2 0
x_5_7_0_3 1.0000000000000133e+00
x_5_7_0_4 0
x_5_7_0_5 0
x_5_7_1_0 0
x_5_7_1_1 1
x_5_7_1_2 0
x_5_7_1_3 0
x_5_7_1_4 1.1102230246251565e-16
x_5_7_1_5 0
x_5_8_0_0 0
x_5_8_0_1 0
x_5_8_0_2 0
x_5_8_0_3 0
x_5_8_0_4 0
x_5_8_0_5 0
x_5_8_1_0 0
x_5_8_1_1 0
x_5_8_1_2 0
x_5_8_1_3 0
x_5_8_1_4 0
x_5_8_1_5 0
x_5_9_0_0 0
x_5_9_0_1 0
x_5_9_0_2 0
x_5_9_0_3 0
x_5_9_0_4 0
x_5_9_0_5 0
x_5_9_1_0 0
x_5_9_1_1 0
x_5_9_1_2 0
x_5_9_1_3 0
x_5_9_1_4 0
x_5_9_1_5 0
x_5_10_0_0 0
x_5_10_0_1 0
x_5_10_0_2 0
x_5_10_0_3 0
x_5_10_0_4 0
x_5_10_0_5 0
x_5_10_1_0 0
x_5_10_1_1 0
x_5_10_1_2 0
x_5_10_1_3 0
x_5_10_1_4 0
x_5_10_1_5 0
x_6_7_0_0 0
x_6_7_0_1 0
x_6_7_0_2 0
x_6_7_0_3 0
x_6_7_0_4 0
x_6_7_0_5 0
x_6_7_1_0 0
x_6_7_1_1 0
x_6_7_1_2 0
x_6_7_1_3 0
x_6_7_1_4 0
x_6_7_1_5 0
x_6_8_0_0 0
x_6_8_0_1 0
x_6_8_0_2 0
x_6_8_0_3 -2.7755575615628914e-17
x_6_8_0_4 0
x_6_8_0_5 0
x_6_8_1_0 0
x_6_8_1_1 0
x_6_8_1_2 0
x_6_8_1_3 0
x_6_8_1_4 0
x_6_8_1_5 0
x_6_9_0_0 0
x_6_9_0_1 0
x_6_9_0_2 -2.3592239273284576e-16
x_6_9_0_3 0
x_6_9_0_4 0
x_6_9_0_5 0
x_6_9_1_0 0
x_6_9_1_1 5.5511151231257827e-17
x_6_9_1_2 0
x_6_9_1_3 0
x_6_9_1_4 9.9999999999993661e-01
x_6_9_1_5 0
x_6_10_0_0 0
x_6_10_0_1 0
x_6_10_0_2 0
x_6_10_0_3 0
x_6_10_0_4 0
x_6_10_0_5 0
x_6_10_1_0 0
x_6_10_1_1 0
x_6_10_1_2 0
x_6_10_1_3 0
x_6_10_1_4 1.2684298056342413e-13
x_6_10_1_5 0
x_7_8_0_0 0
x_7_8_0_1 0
x_7_8_0_2 0
x_7_8_0_3 0
x_7_8_0_4 0
x_7_8_0_5 0
x_7_8_1_0 0
x_7_8_1_1 0
x_7_8_1_2 0
x_7_8_1_3 0
x_7_8_1_4 0
x_7_8_1_5 0
x_7_9_0_0 0
x_7_9_0_1 0
x_7_9_0_2 -1.4419021532319221e-14
x_7_9_0_3 2.8074764735208646e-14
x_7_9_0_4 1.1102230246251565e-16
x_7_9_0_5 0
x_7_9_1_0 0
x_7_9_1_1 0
x_7_9_1_2 0
x_7_9_1_3 0
x_7_9_1_4 -3.3306690738754696e-16
x_7_9_1_5 0
x_7_10_0_0 0
x_7_10_0_1 0
x_7_10_0_2 0
x_7_10_0_3 0
x_7_10_0_4 0
x_7_10_0_5 0
x_7_10_1_0 0
x_7_10_1_1 0
x_7_10_1_2 0
x_7_10_1_3 0
x_7_10_1_4 0
x_7_10_1_5 0
x_8_9_0_0 0
x_8_9_0_1 0
x_8_9_0_2 0
x_8_9_0_3 0
x_8_9_0_4 0
x_8_9_0_5 0
x_8_9_1_0 0
x_8_9_1_1 0
x_8_9_1_2 0
x_8_9_1_3 0
x_8_9_1_4 0
x_8_9_1_5 0
x_8_10_0_0 0
x_8_10_0_1 0
x_8_10_0_2 1.0000000000000278e+00
x_8_10_0_3 0
x_8_10_0_4 0
x_8_10_0_5 0
x_8_10_1_0 0
x_8_10_1_1 0
x_8_10_1_2 0
x_8_10_1_3 0
x_8_10_1_4 0
x_8_10_1_5 0
x_9_10_0_0 0
x_9_10_0_1 0
x_9_10_0_2 0
x_9_10_0_3 0
x_9_10_0_4 0
x_9_10_0_5 0
x_9_10_1_0 0
x_9_10_1_1 0
x_9_10_1_2 0
x_9_10_1_3 0
x_9_10_1_4 0
x_9_10_1_5 0
